NAME
* Written by aykut, min -x2-x3 s.t. x1=1, x in L^3
OBJSENSE
    MIN
ROWS
 N  OBJ
 E  C1
COLUMNS
    X1        OBJ       0e+0
    X1        C1        1e+0
    X2        OBJ       -1e+0
    X2        C1        0e+0
    X3        OBJ       -1e+0
    X3        C1        0e+0
RHS
    rhs       C1        1e+0
RANGES
BOUNDS
 LO BOUND     X2        0
 LO BOUND     X3        0
CSECTION      K1        0              QUAD
    X1
    X2
    X3
ENDATA
